GLPSOL: GLPK LP/MIP Solver, v4.55
Parameter(s) specified in the command line:
 -m tmp.mod
Reading model section from tmp.mod...
Reading data section from tmp.mod...
944 lines were read
Generating obj...
Generating kirhoff...
Generating init_charge...
Generating batt_size...
Model has been successfully generated
GLPK Simplex Optimizer, v4.55
1228 rows, 1583 columns, 3156 non-zeros
Preprocessing...
805 rows, 1480 columns, 3008 non-zeros
Scaling...
 A: min|aij| =  1.000e+00  max|aij| =  1.000e+00  ratio =  1.000e+00
Problem data seem to be well scaled
Constructing initial basis...
Size of triangular part is 652
      0: obj =   0.000000000e+00  infeas =  5.570e+02 (153)
*   125: obj =   1.700000000e+01  infeas =  0.000e+00 (138)
*   127: obj =   1.600000000e+01  infeas =  0.000e+00 (138)
OPTIMAL LP SOLUTION FOUND
Time used:   0.0 secs
Memory used: 3.3 Mb (3450083 bytes)
#OUTPUT:
16
0 -16 -18 0 -16 0 -12 0 0 0 0 0 0 -2 0 0 -2 0 0 0 -14 0 0 0 0 0 0 0 0 0 -18 0 0 0 0 -17 0 -12 0 0 12 12 -17 0 0 0 0 14 0 0 -12 0 0 0 0 0 0 0 
0 -19 -1 0 -20 -1 0 0 0 0 0 0 0 2 0 0 2 0 0 0 -6 0 0 0 0 0 0 0 0 0 0 0 0 0 0 0 0 0 1 0 0 0 0 0 0 0 0 -14 -1 0 0 0 0 0 0 0 0 0 
0 -13 0 0 -13 0 0 0 0 0 0 0 0 0 0 0 0 0 0 0 -8 0 0 0 0 0 0 0 0 0 0 0 0 0 0 0 0 0 0 0 0 0 0 0 0 0 0 8 0 0 0 0 0 0 0 0 0 0 
0 0 0 0 0 0 0 0 0 0 0 0 0 0 0 0 0 0 0 0 0 0 0 0 0 0 0 0 0 0 0 0 0 0 0 0 0 0 0 0 0 0 0 0 0 0 0 0 0 0 0 0 0 0 0 0 0 0 
0 -19 -1 -6 2 -1 -3 0 -16 0 0 0 -1 2 0 -1 2 0 0 0 0 0 0 0 0 -16 0 0 0 -1 0 0 0 0 0 0 0 0 1 -16 0 0 0 0 -3 1 0 0 -1 -3 0 0 0 0 0 0 0 0 
0 -19 0 -18 6 0 0 0 -1 0 0 0 0 2 0 -18 2 0 0 0 4 0 0 0 0 0 0 0 0 0 0 0 0 0 0 0 0 0 0 0 0 0 0 0 0 -1 0 -4 0 0 0 0 0 0 0 0 0 0 
0 0 0 0 0 0 -4 0 0 0 0 0 0 0 0 0 0 0 0 0 0 0 0 0 0 0 0 0 0 0 0 0 0 0 0 0 0 -4 0 0 0 0 0 -4 0 0 0 0 0 0 0 0 0 0 0 0 0 0 
-3 -17 0 0 0 0 0 0 0 0 0 0 0 0 0 0 0 0 0 0 0 0 0 -17 0 0 0 0 -3 0 0 0 0 0 0 0 0 0 0 0 0 0 0 0 0 0 0 0 0 0 0 0 0 0 0 0 0 0 
0 -1 -18 0 0 -19 -1 0 0 0 0 0 0 0 -20 0 0 0 0 0 0 0 0 0 0 0 0 0 0 0 1 0 0 0 0 0 0 -1 -1 0 1 1 0 0 0 0 0 0 1 0 -1 0 0 0 0 0 0 0 
0 0 0 0 0 0 -14 -1 0 0 0 -1 0 0 0 0 0 0 0 0 0 0 0 0 0 0 0 0 0 0 0 0 0 0 0 0 0 0 0 0 0 0 0 0 1 0 0 0 0 0 0 0 0 0 0 0 0 0 
0 0 0 0 0 0 0 0 0 0 0 0 0 0 0 0 0 0 0 0 0 0 0 0 0 0 0 0 0 0 0 0 0 0 0 0 0 0 0 0 0 0 0 0 0 0 0 0 0 0 0 0 0 0 0 0 0 0 
0 -17 0 -1 0 0 0 0 -16 0 0 0 0 0 0 -1 0 0 0 0 0 0 0 0 0 0 -17 0 0 0 0 0 0 0 0 0 0 0 0 0 0 0 0 0 0 1 0 0 0 0 0 0 0 0 0 0 0 0 
0 0 0 0 0 0 0 0 0 0 0 0 0 0 0 0 0 0 0 0 0 0 0 0 0 0 0 0 0 0 0 0 0 0 0 0 0 0 0 0 0 0 0 0 0 0 0 0 0 0 0 0 0 0 0 0 0 0 
#OUTPUT END
Model has been successfully processed
